105
0 36 63 59 28 74 64 71 35 11 
52 3 6 58 55 89 39 40 14 43 
31 26 47 96 73 30 94 91 51 68 
99 50 16 7 41 45 33 77 44 72 
62 5 13 86 48 10 21 19 98 54 
2 24 85 78 25 1 23 56 87 9 
60 75 18 70 102 84 81 15 27 66 
90 42 65 61 76 8 17 32 101 95 
53 80 104 20 79 67 4 83 69 88 
103 12 92 38 57 46 100 93 34 97 
49 29 37 22 82 
